
Gurobi 10.0.1 (linux64) logging started Sun Nov 26 15:55:20 2023

Set parameter LogFile to value "ArtificialInstance/ExperimentV2/S2T3K3/AdSp/gurobi91.txt"
Gurobi Optimizer version 10.0.1 build v10.0.1rc0 (linux64)

CPU model: AMD EPYC 7H12 64-Core Processor, instruction set [SSE2|AVX|AVX2]
Thread count: 128 physical cores, 128 logical processors, using up to 32 threads

Academic license 656792 - for non-commercial use only - registered to b.___@student.vu.nl
Optimize a model with 9610 rows, 9378 columns and 35786 nonzeros
Model fingerprint: 0xd69c1ca9
Variable types: 0 continuous, 9378 integer (9378 binary)
Coefficient statistics:
  Matrix range     [1e+00, 1e+00]
  Objective range  [2e+00, 2e+01]
  Bounds range     [1e+00, 1e+00]
  RHS range        [1e+00, 1e+00]
Presolve removed 2149 rows and 2225 columns
Presolve time: 0.16s
Presolved: 7461 rows, 7153 columns, 27729 nonzeros
Variable types: 0 continuous, 7153 integer (7153 binary)

Root relaxation: objective 5.932594e+01, 3480 iterations, 0.13 seconds (0.08 work units)

    Nodes    |    Current Node    |     Objective Bounds      |     Work
 Expl Unexpl |  Obj  Depth IntInf | Incumbent    BestBd   Gap | It/Node Time

     0     0   59.32594    0  256          -   59.32594      -     -    0s
H    0     0                      89.9256371   59.32594  34.0%     -    0s
H    0     0                      62.6626327   59.32594  5.32%     -    0s
H    0     0                      62.5381191   61.41621  1.79%     -    0s
*    0     0               0      62.0832275   62.08323  0.00%     -    0s

Cutting planes:
  Gomory: 4
  Zero half: 9

Explored 1 nodes (5463 simplex iterations) in 0.55 seconds (0.33 work units)
Thread count was 32 (of 128 available processors)

Solution count 4: 62.0832 62.5381 62.6626 89.9256 

Optimal solution found (tolerance 1.00e-04)
Best objective 6.208322751840e+01, best bound 6.208322751840e+01, gap 0.0000%
